
Gurobi 10.0.2 (linux64) logging started Thu 31 Aug 2023 01:11:44 AM -03

Set parameter LogFile to value "/home/ciro/Documents/ftsp-optimizer/Optimization/Data/Logs/att48_5_1001_1001_2.log"
Gurobi Optimizer version 10.0.2 build v10.0.2rc0 (linux64)

CPU model: Intel(R) Core(TM) i7-7500U CPU @ 2.70GHz, instruction set [SSE2]
Thread count: 2 physical cores, 2 logical processors, using up to 2 threads

Optimize a model with 2264 rows, 2400 columns and 13396 nonzeros
Model fingerprint: 0x53e1ba2b
Variable types: 48 continuous, 2352 integer (2352 binary)
Coefficient statistics:
  Matrix range     [1e+00, 5e+01]
  Objective range  [1e+02, 8e+03]
  Bounds range     [1e+00, 5e+01]
  RHS range        [1e+00, 5e+01]
Presolve removed 3 rows and 66 columns
Presolve time: 0.07s
Presolved: 2261 rows, 2334 columns, 11091 nonzeros
Variable types: 47 continuous, 2287 integer (2287 binary)
Found heuristic solution: objective 105937.20488
Found heuristic solution: objective 103295.91937

Root relaxation: objective 1.690254e+04, 285 iterations, 0.02 seconds (0.01 work units)

    Nodes    |    Current Node    |     Objective Bounds      |     Work
 Expl Unexpl |  Obj  Depth IntInf | Incumbent    BestBd   Gap | It/Node Time

     0     0 16902.5377    0   73 103295.919 16902.5377  83.6%     -    0s
     0     0 19008.3550    0   84 103295.919 19008.3550  81.6%     -    1s
H    0     0                    29323.026806 19008.3550  35.2%     -    1s
     0     0 21149.9326    0   74 29323.0268 21149.9326  27.9%     -    1s
     0     0 21149.9326    0   74 29323.0268 21149.9326  27.9%     -    1s
     0     0 21602.5624    0   88 29323.0268 21602.5624  26.3%     -    1s
     0     0 21793.5700    0   83 29323.0268 21793.5700  25.7%     -    1s
     0     0 21797.4829    0   93 29323.0268 21797.4829  25.7%     -    1s
     0     0 21797.4829    0   93 29323.0268 21797.4829  25.7%     -    1s
     0     0 21797.4829    0   93 29323.0268 21797.4829  25.7%     -    2s
     0     0 21797.4829    0   93 29323.0268 21797.4829  25.7%     -    2s
     0     0 21815.0863    0   85 29323.0268 21815.0863  25.6%     -    2s
H    0     0                    27279.914918 21815.0863  20.0%     -    2s
     0     0 21815.0863    0   91 27279.9149 21815.0863  20.0%     -    2s
     0     0 21826.9681    0  100 27279.9149 21826.9681  20.0%     -    2s
     0     0 21826.9681    0  100 27279.9149 21826.9681  20.0%     -    2s
     0     0 21848.9896    0   88 27279.9149 21848.9896  19.9%     -    2s
     0     0 21848.9896    0   88 27279.9149 21848.9896  19.9%     -    2s
     0     0 21848.9896    0  100 27279.9149 21848.9896  19.9%     -    2s
     0     0 21848.9896    0  100 27279.9149 21848.9896  19.9%     -    2s
     0     0 21894.7792    0   82 27279.9149 21894.7792  19.7%     -    2s
     0     0 21894.7792    0   83 27279.9149 21894.7792  19.7%     -    2s
     0     0 21894.7792    0   84 27279.9149 21894.7792  19.7%     -    2s
     0     0 21894.7792    0   84 27279.9149 21894.7792  19.7%     -    2s
     0     0 21894.7792    0   92 27279.9149 21894.7792  19.7%     -    2s
     0     0 21894.7792    0   84 27279.9149 21894.7792  19.7%     -    2s
     0     2 22039.4634    0   84 27279.9149 22039.4634  19.2%     -    2s
H  113    94                    26999.676338 22039.4634  18.4%  10.0    2s
H  115    94                    26656.686418 22039.4634  17.3%   9.9    2s
H  579   411                    26082.695095 22039.4634  15.5%   6.8    3s
H  580   356                    25207.076208 22039.4634  12.6%   6.8    3s
   765   484 23108.3517    6   77 25207.0762 22039.4634  12.6%   6.7    5s
H  818   495                    25207.076115 22206.5488  11.9%   9.5    7s
H  842   488                    25207.075913 22206.5488  11.9%   9.8    7s
H  900   504                    25195.610271 22206.5488  11.9%  10.4    7s
H  967   524                    24887.621291 22206.5488  10.8%  10.9    7s
H 1370   658                    24668.402947 22213.8795  10.0%  12.6    9s
  1518   737 24244.9992   40   61 24668.4029 22220.6585  9.92%  12.9   10s
  4813  2953 22971.1457   17   78 24668.4029 22334.2449  9.46%  16.6   15s
H 4924  2755                    24294.980361 22334.2449  8.07%  16.6   15s
H 7293  3780                    23686.023161 22406.7973  5.40%  17.7   19s
  7314  3795 23315.0231   26   86 23686.0232 22406.7973  5.40%  17.7   20s
  8917  3749 23359.7641   48   87 23686.0232 22760.9193  3.91%  19.3   25s
 12114  3201 23314.4324   52   16 23686.0232 23143.3721  2.29%  20.9   30s
 16104  2764 23407.0481   61   67 23686.0232 23253.3910  1.83%  21.0   35s
 20552  2201 infeasible   52      23686.0232 23340.7506  1.46%  21.0   40s
 22039  2239 23605.2332   55   17 23686.0232 23365.4755  1.35%  21.0   47s
 24227  2159 23461.3964   55    6 23686.0232 23399.0250  1.21%  21.0   50s
 28412  1241     cutoff   56      23686.0232 23493.3641  0.81%  21.1   55s

Cutting planes:
  Learned: 38
  Gomory: 23
  Cover: 30
  Implied bound: 35
  Projected implied bound: 8
  Clique: 1
  MIR: 32
  StrongCG: 3
  Flow cover: 245
  Inf proof: 40
  Zero half: 34
  RLT: 1
  Relax-and-lift: 4

Explored 31014 nodes (655011 simplex iterations) in 58.43 seconds (82.76 work units)
Thread count was 2 (of 2 available processors)

Solution count 10: 23686 23686 24295 ... 26999.7

Optimal solution found (tolerance 1.00e-04)
Best objective 2.368602316136e+04, best bound 2.368602316136e+04, gap 0.0000%
